S = 8;
C = 8;
min_u_computo = 10;
server_viejo = 8;

% Declaracion de vectores
oferta = [100, 100, 100, 90, 90, 80, 80, 80];
demanda = [100, 100, 100, 50, 80, 100, 120, 100];
max_u_computo_clientes = [75, 60, 50, 40, 50, 80, 80, 100];